language ESSENCE' 1.0

letting C_FunctionND be
        [[0, 0, 0, 0, 0, 0, 0, 0, 0, 0, 0, 0, 0, 0; int(0..13)], [1, 0, 0, 0, 0, 0, 0, 0, 0, 0, 0, 0, 0, 0; int(0..13)],
         [1, 0, 0, 0, 0, 0, 0, 0, 0, 0, 0, 0, 0, 0; int(0..13)], [1, 0, 0, 0, 0, 0, 0, 0, 0, 0, 0, 0, 0, 0; int(0..13)],
         [1, 0, 0, 0, 0, 0, 0, 0, 0, 0, 0, 0, 0, 0; int(0..13)], [1, 0, 0, 0, 0, 0, 0, 0, 0, 0, 0, 0, 0, 0; int(0..13)],
         [1, 0, 0, 0, 0, 0, 0, 0, 0, 0, 0, 0, 0, 0; int(0..13)], [0, 1, 1, 0, 0, 0, 0, 0, 0, 0, 0, 0, 0, 0; int(0..13)],
         [0, 1, 0, 1, 1, 1, 1, 0, 0, 0, 0, 0, 0, 0; int(0..13)], [0, 0, 1, 1, 0, 0, 0, 0, 0, 0, 0, 0, 0, 0; int(0..13)],
         [0, 0, 1, 0, 1, 0, 0, 0, 0, 0, 0, 0, 0, 0; int(0..13)], [0, 0, 1, 0, 0, 1, 0, 0, 0, 0, 0, 0, 0, 0; int(0..13)],
         [0, 0, 1, 0, 0, 0, 1, 0, 0, 0, 0, 0, 0, 0; int(0..13)], [0, 0, 0, 0, 0, 0, 0, 1, 1, 1, 1, 1, 1, 0; int(0..13)];
             int(0..13)]
$ Visualisation for C_FunctionND
$ 0 0 0 0 0 0 0 0 0 0 0 0 0 0
$ 1 0 0 0 0 0 0 0 0 0 0 0 0 0
$ 1 0 0 0 0 0 0 0 0 0 0 0 0 0
$ 1 0 0 0 0 0 0 0 0 0 0 0 0 0
$ 1 0 0 0 0 0 0 0 0 0 0 0 0 0
$ 1 0 0 0 0 0 0 0 0 0 0 0 0 0
$ 1 0 0 0 0 0 0 0 0 0 0 0 0 0
$ 0 1 1 0 0 0 0 0 0 0 0 0 0 0
$ 0 1 0 1 1 1 1 0 0 0 0 0 0 0
$ 0 0 1 1 0 0 0 0 0 0 0 0 0 0
$ 0 0 1 0 1 0 0 0 0 0 0 0 0 0
$ 0 0 1 0 0 1 0 0 0 0 0 0 0 0
$ 0 0 1 0 0 0 1 0 0 0 0 0 0 0
$ 0 0 0 0 0 0 0 1 1 1 1 1 1 0

letting J_FunctionND be
        [[0, 1, 2, 3, 4, 5, 6, 7, 8, 9, 10, 11, 12, 13; int(0..13)],
         [1, 1, 7, 8, 8, 8, 8, 7, 8, 13, 13, 13, 13, 13; int(0..13)],
         [2, 7, 2, 9, 10, 11, 12, 7, 13, 9, 10, 11, 12, 13; int(0..13)],
         [3, 8, 9, 3, 8, 8, 8, 13, 8, 9, 13, 13, 13, 13; int(0..13)],
         [4, 8, 10, 8, 4, 8, 8, 13, 8, 13, 10, 13, 13, 13; int(0..13)],
         [5, 8, 11, 8, 8, 5, 8, 13, 8, 13, 13, 11, 13, 13; int(0..13)],
         [6, 8, 12, 8, 8, 8, 6, 13, 8, 13, 13, 13, 12, 13; int(0..13)],
         [7, 7, 7, 13, 13, 13, 13, 7, 13, 13, 13, 13, 13, 13; int(0..13)],
         [8, 8, 13, 8, 8, 8, 8, 13, 8, 13, 13, 13, 13, 13; int(0..13)],
         [9, 13, 9, 9, 13, 13, 13, 13, 13, 9, 13, 13, 13, 13; int(0..13)],
         [10, 13, 10, 13, 10, 13, 13, 13, 13, 13, 10, 13, 13, 13; int(0..13)],
         [11, 13, 11, 13, 13, 11, 13, 13, 13, 13, 13, 11, 13, 13; int(0..13)],
         [12, 13, 12, 13, 13, 13, 12, 13, 13, 13, 13, 13, 12, 13; int(0..13)],
         [13, 13, 13, 13, 13, 13, 13, 13, 13, 13, 13, 13, 13, 13; int(0..13)];
             int(0..13)]
$ Visualisation for J_FunctionND
$  0  1  2  3  4  5  6  7  8  9 10 11 12 13
$  1  1  7  8  8  8  8  7  8 13 13 13 13 13
$  2  7  2  9 10 11 12  7 13  9 10 11 12 13
$  3  8  9  3  8  8  8 13  8  9 13 13 13 13
$  4  8 10  8  4  8  8 13  8 13 10 13 13 13
$  5  8 11  8  8  5  8 13  8 13 13 11 13 13
$  6  8 12  8  8  8  6 13  8 13 13 13 12 13
$  7  7  7 13 13 13 13  7 13 13 13 13 13 13
$  8  8 13  8  8  8  8 13  8 13 13 13 13 13
$  9 13  9  9 13 13 13 13 13  9 13 13 13 13
$ 10 13 10 13 10 13 13 13 13 13 10 13 13 13
$ 11 13 11 13 13 11 13 13 13 13 13 11 13 13
$ 12 13 12 13 13 13 12 13 13 13 13 13 12 13
$ 13 13 13 13 13 13 13 13 13 13 13 13 13 13

letting M_FunctionND be
        [[0, 0, 0, 0, 0, 0, 0, 0, 0, 0, 0, 0, 0, 0; int(0..13)], [0, 1, 0, 0, 0, 0, 0, 1, 1, 0, 0, 0, 0, 1; int(0..13)],
         [0, 0, 2, 0, 0, 0, 0, 2, 0, 2, 2, 2, 2, 2; int(0..13)], [0, 0, 0, 3, 0, 0, 0, 0, 3, 3, 0, 0, 0, 3; int(0..13)],
         [0, 0, 0, 0, 4, 0, 0, 0, 4, 0, 4, 0, 0, 4; int(0..13)], [0, 0, 0, 0, 0, 5, 0, 0, 5, 0, 0, 5, 0, 5; int(0..13)],
         [0, 0, 0, 0, 0, 0, 6, 0, 6, 0, 0, 0, 6, 6; int(0..13)], [0, 1, 2, 0, 0, 0, 0, 7, 1, 2, 2, 2, 2, 7; int(0..13)],
         [0, 1, 0, 3, 4, 5, 6, 1, 8, 3, 4, 5, 6, 8; int(0..13)], [0, 0, 2, 3, 0, 0, 0, 2, 3, 9, 2, 2, 2, 9; int(0..13)],
         [0, 0, 2, 0, 4, 0, 0, 2, 4, 2, 10, 2, 2, 10; int(0..13)],
         [0, 0, 2, 0, 0, 5, 0, 2, 5, 2, 2, 11, 2, 11; int(0..13)],
         [0, 0, 2, 0, 0, 0, 6, 2, 6, 2, 2, 2, 12, 12; int(0..13)],
         [0, 1, 2, 3, 4, 5, 6, 7, 8, 9, 10, 11, 12, 13; int(0..13)];
             int(0..13)]
$ Visualisation for M_FunctionND
$  0  0  0  0  0  0  0  0  0  0  0  0  0  0
$  0  1  0  0  0  0  0  1  1  0  0  0  0  1
$  0  0  2  0  0  0  0  2  0  2  2  2  2  2
$  0  0  0  3  0  0  0  0  3  3  0  0  0  3
$  0  0  0  0  4  0  0  0  4  0  4  0  0  4
$  0  0  0  0  0  5  0  0  5  0  0  5  0  5
$  0  0  0  0  0  0  6  0  6  0  0  0  6  6
$  0  1  2  0  0  0  0  7  1  2  2  2  2  7
$  0  1  0  3  4  5  6  1  8  3  4  5  6  8
$  0  0  2  3  0  0  0  2  3  9  2  2  2  9
$  0  0  2  0  4  0  0  2  4  2 10  2  2 10
$  0  0  2  0  0  5  0  2  5  2  2 11  2 11
$  0  0  2  0  0  0  6  2  6  2  2  2 12 12
$  0  1  2  3  4  5  6  7  8  9 10 11 12 13

letting R_Function1D be [0, 1, 1, 1, 1, 1, 1, 2, 2, 2, 2, 2, 2, 3; int(0..13)]
